data/solutions/recovery/degenerate/intermediate/binding/degenerate_intermediate_instance23/65.sol
Elapsed time: 0.07
Upper bound: 230956156.0
Planning weighted value: 9.34485701629e+11
C[0]=230956156.0
C[1]=229298361.0
C[2]=229268811.0
C[3]=229014536.0
C[4]=227596203.0
C[5]=227246448.0
C[6]=226165767.0
C[7]=222824081.0
C[8]=222058861.0
C[9]=219700346.0
C[10]=218276330.0
C[11]=0.0
y[0]=7
y[1]=1
y[2]=5
y[3]=10
y[4]=3
y[5]=8
y[6]=1
y[7]=5
y[8]=2
y[9]=9
y[10]=5
y[11]=4
y[12]=7
y[13]=3
y[14]=2
y[15]=5
y[16]=9
y[17]=7
y[18]=8
y[19]=0
y[20]=0
y[21]=10
y[22]=5
y[23]=9
y[24]=6
y[25]=2
y[26]=6
y[27]=2
y[28]=7
y[29]=2
y[30]=9
y[31]=6
y[32]=10
y[33]=0
y[34]=8
y[35]=1
y[36]=1
y[37]=9
y[38]=3
y[39]=7
y[40]=0
y[41]=6
y[42]=10
y[43]=3
y[44]=6
y[45]=7
y[46]=0
y[47]=3
y[48]=5
y[49]=9
y[50]=1
y[51]=6
y[52]=4
y[53]=1
y[54]=1
y[55]=7
y[56]=9
y[57]=10
y[58]=2
y[59]=4
y[60]=8
y[61]=0
y[62]=8
y[63]=4
y[64]=4
y[65]=9
y[66]=10
y[67]=7
y[68]=9
y[69]=6
y[70]=3
y[71]=3
y[72]=5
y[73]=7
y[74]=6
y[75]=3
y[76]=2
y[77]=2
